NAME          Slots selection
ROWS
 N  *OBJ*
 E  subJob_167
 E  subJob_166
 E  subJob_165
 E  subJob_164
 E  subJob_163
 E  subJob_162
 E  subJob_161
 E  subJob_160
 E  subJob_159
 E  subJob_158
 E  subJob_157
 E  subJob_156
 E  subJob_155
 E  subJob_154
 E  subJob_153
 E  subJob_152
 E  subJob_151
 E  subJob_150
 E  subJob_149
 E  subJob_148
 E  subJob_147
 E  subJob_146
 E  subJob_145
 E  subJob_144
 E  subJob_143
 E  subJob_142
 E  subJob_141
 E  subJob_140
 E  subJob_139
 E  subJob_138
 E  subJob_137
 E  subJob_136
 E  subJob_135
 E  subJob_134
 E  subJob_133
 E  subJob_132
 E  subJob_131
 E  subJob_130
 E  subJob_129
 E  subJob_128
 E  subJob_127
 E  subJob_126
 E  subJob_125
 E  subJob_124
 E  subJob_123
 E  subJob_122
 E  subJob_121
 E  subJob_120
 E  subJob_119
 E  subJob_118
 E  subJob_117
 E  subJob_116
 E  subJob_115
 E  subJob_114
 E  subJob_113
 E  subJob_112
 E  subJob_111
 E  subJob_110
 E  subJob_109
 E  subJob_108
 E  subJob_107
 E  subJob_106
 E  subJob_105
 E  subJob_104
 E  subJob_103
 E  subJob_102
 E  subJob_101
 E  subJob_100
 E  subJob_99
 E  subJob_98
 E  subJob_97
 E  subJob_96
 E  subJob_95
 E  subJob_94
 E  subJob_93
 E  subJob_92
 E  subJob_91
 E  subJob_90
 E  subJob_89
 E  subJob_88
 E  subJob_87
 E  subJob_86
 E  subJob_85
 E  subJob_84
 E  subJob_83
 E  subJob_82
 E  subJob_81
 E  subJob_80
 E  subJob_79
 E  subJob_78
 E  subJob_77
 E  subJob_76
 E  subJob_75
 E  subJob_74
 E  subJob_73
 E  subJob_72
 E  subJob_71
 E  subJob_70
 E  subJob_69
 E  subJob_68
 E  subJob_67
 E  subJob_66
 E  subJob_65
 E  subJob_64
 E  subJob_63
 E  subJob_62
 E  subJob_61
 E  subJob_60
 E  subJob_59
 E  subJob_58
 E  subJob_57
 E  subJob_56
 E  subJob_55
 E  subJob_54
 E  subJob_53
 E  subJob_52
 E  subJob_51
 E  subJob_50
 E  subJob_49
 E  subJob_48
 E  subJob_47
 E  subJob_46
 E  subJob_45
 E  subJob_44
 E  subJob_43
 E  subJob_42
 E  subJob_41
 E  subJob_40
 E  subJob_39
 E  subJob_38
 E  subJob_37
 E  subJob_36
 E  subJob_35
 E  subJob_34
 E  subJob_33
 E  subJob_32
 E  subJob_31
 E  subJob_30
 E  subJob_29
 E  subJob_28
 E  subJob_27
 E  subJob_26
 E  subJob_25
 E  subJob_24
 E  subJob_23
 E  subJob_22
 E  subJob_21
 E  subJob_20
 E  subJob_19
 E  subJob_18
 E  subJob_17
 E  subJob_16
 E  subJob_15
 E  subJob_14
 E  subJob_13
 E  subJob_12
 E  subJob_11
 E  subJob_10
 E  subJob_9
 E  subJob_8
 E  subJob_7
 E  subJob_6
 E  subJob_5
 E  subJob_4
 E  subJob_3
 E  subJob_2
 E  subJob_1
 E  subJob

COLUMNS
    DR_(0)    subJob_8  1
    DR_(0)    subJob_9  1
    DR_(0)    subJob_21  1
    DR_(0)    subJob_80  1
    DR_(0)    subJob_89  1
    DR_(0)    subJob_95  1
    DR_(0)    subJob_105  1
    DR_(0)    subJob_107  1
    DR_(0)    subJob_109  1
    DR_(0)    *OBJ*     1144
    DR_(1)    subJob_8  1
    DR_(1)    subJob_9  1
    DR_(1)    subJob_11  1
    DR_(1)    subJob_13  1
    DR_(1)    subJob_21  1
    DR_(1)    subJob_80  1
    DR_(1)    subJob_89  1
    DR_(1)    subJob_95  1
    DR_(1)    subJob_105  1
    DR_(1)    subJob_107  1
    DR_(1)    subJob_109  1
    DR_(1)    *OBJ*     1200
    DR_(2)    subJob_8  1
    DR_(2)    subJob_9  1
    DR_(2)    subJob_11  1
    DR_(2)    subJob_13  1
    DR_(2)    subJob_17  1
    DR_(2)    subJob_21  1
    DR_(2)    subJob_46  1
    DR_(2)    subJob_54  1
    DR_(2)    subJob_63  1
    DR_(2)    subJob_65  1
    DR_(2)    subJob_67  1
    DR_(2)    subJob_70  1
    DR_(2)    subJob_80  1
    DR_(2)    subJob_89  1
    DR_(2)    subJob_95  1
    DR_(2)    subJob_105  1
    DR_(2)    subJob_107  1
    DR_(2)    subJob_109  1
    DR_(2)    *OBJ*     1262
    DR_(3)    subJob_8  1
    DR_(3)    subJob_9  1
    DR_(3)    subJob_11  1
    DR_(3)    subJob_13  1
    DR_(3)    subJob_21  1
    DR_(3)    subJob_23  1
    DR_(3)    subJob_54  1
    DR_(3)    subJob_63  1
    DR_(3)    subJob_65  1
    DR_(3)    subJob_67  1
    DR_(3)    subJob_70  1
    DR_(3)    subJob_80  1
    DR_(3)    subJob_89  1
    DR_(3)    subJob_92  1
    DR_(3)    subJob_95  1
    DR_(3)    subJob_105  1
    DR_(3)    subJob_107  1
    DR_(3)    subJob_109  1
    DR_(3)    *OBJ*     1265
    DR_(4)    subJob_9  1
    DR_(4)    subJob_81  1
    DR_(4)    subJob_82  1
    DR_(4)    subJob_83  1
    DR_(4)    subJob_84  1
    DR_(4)    subJob_85  1
    DR_(4)    subJob_90  1
    DR_(4)    subJob_95  1
    DR_(4)    *OBJ*     901
    DR_(5)    subJob_19  1
    DR_(5)    subJob_47  1
    DR_(5)    subJob_81  1
    DR_(5)    subJob_82  1
    DR_(5)    subJob_83  1
    DR_(5)    subJob_84  1
    DR_(5)    subJob_85  1
    DR_(5)    subJob_90  1
    DR_(5)    *OBJ*     899
    DR_(6)    subJob_8  1
    DR_(6)    subJob_9  1
    DR_(6)    subJob_10  1
    DR_(6)    subJob_21  1
    DR_(6)    subJob_48  1
    DR_(6)    subJob_80  1
    DR_(6)    subJob_89  1
    DR_(6)    subJob_95  1
    DR_(6)    subJob_105  1
    DR_(6)    subJob_107  1
    DR_(6)    subJob_109  1
    DR_(6)    *OBJ*     1201
    DR_(7)    subJob_12  1
    DR_(7)    subJob_49  1
    DR_(7)    subJob_81  1
    DR_(7)    subJob_82  1
    DR_(7)    subJob_83  1
    DR_(7)    subJob_84  1
    DR_(7)    subJob_85  1
    DR_(7)    subJob_90  1
    DR_(7)    *OBJ*     899
    DR_(8)    subJob_9  1
    DR_(8)    subJob_15  1
    DR_(8)    subJob_80  1
    DR_(8)    subJob_89  1
    DR_(8)    subJob_95  1
    DR_(8)    subJob_103  1
    DR_(8)    subJob_105  1
    DR_(8)    subJob_107  1
    DR_(8)    subJob_109  1
    DR_(8)    *OBJ*     1142
    DR_(9)    subJob_8  1
    DR_(9)    subJob_9  1
    DR_(9)    subJob_21  1
    DR_(9)    subJob_22  1
    DR_(9)    subJob_80  1
    DR_(9)    subJob_89  1
    DR_(9)    subJob_95  1
    DR_(9)    subJob_105  1
    DR_(9)    subJob_107  1
    DR_(9)    subJob_109  1
    DR_(9)    subJob_136  1
    DR_(9)    *OBJ*     1203
    DR_(10)   subJob_55  1
    DR_(10)   subJob_81  1
    DR_(10)   subJob_82  1
    DR_(10)   subJob_83  1
    DR_(10)   subJob_84  1
    DR_(10)   subJob_85  1
    DR_(10)   subJob_90  1
    DR_(10)   subJob_158  1
    DR_(10)   *OBJ*     901
    DR_(11)   subJob_34  1
    DR_(11)   subJob_37  1
    DR_(11)   subJob_81  1
    DR_(11)   subJob_82  1
    DR_(11)   subJob_83  1
    DR_(11)   subJob_84  1
    DR_(11)   subJob_85  1
    DR_(11)   subJob_90  1
    DR_(11)   *OBJ*     903
    DR_(12)   subJob_8  1
    DR_(12)   subJob_9  1
    DR_(12)   subJob_21  1
    DR_(12)   subJob_80  1
    DR_(12)   subJob_89  1
    DR_(12)   subJob_95  1
    DR_(12)   subJob_105  1
    DR_(12)   subJob_107  1
    DR_(12)   subJob_109  1
    DR_(12)   subJob_115  1
    DR_(12)   subJob_156  1
    DR_(12)   *OBJ*     1202
    DR_(13)   subJob_8  1
    DR_(13)   subJob_9  1
    DR_(13)   subJob_21  1
    DR_(13)   subJob_80  1
    DR_(13)   subJob_89  1
    DR_(13)   subJob_95  1
    DR_(13)   subJob_105  1
    DR_(13)   subJob_107  1
    DR_(13)   subJob_109  1
    DR_(13)   subJob_159  1
    DR_(13)   subJob_163  1
    DR_(13)   *OBJ*     1200
    DR_(14)   subJob_8  1
    DR_(14)   subJob_9  1
    DR_(14)   subJob_11  1
    DR_(14)   subJob_13  1
    DR_(14)   subJob_21  1
    DR_(14)   subJob_31  1
    DR_(14)   subJob_54  1
    DR_(14)   subJob_63  1
    DR_(14)   subJob_65  1
    DR_(14)   subJob_67  1
    DR_(14)   subJob_70  1
    DR_(14)   subJob_80  1
    DR_(14)   subJob_82  1
    DR_(14)   subJob_89  1
    DR_(14)   subJob_95  1
    DR_(14)   subJob_105  1
    DR_(14)   subJob_107  1
    DR_(14)   subJob_109  1
    DR_(14)   subJob_118  1
    DR_(14)   *OBJ*     1260
    DR_(15)   subJob_8  1
    DR_(15)   subJob_9  1
    DR_(15)   subJob_21  1
    DR_(15)   subJob_54  1
    DR_(15)   subJob_63  1
    DR_(15)   subJob_65  1
    DR_(15)   subJob_67  1
    DR_(15)   subJob_68  1
    DR_(15)   subJob_70  1
    DR_(15)   subJob_80  1
    DR_(15)   subJob_82  1
    DR_(15)   subJob_89  1
    DR_(15)   subJob_95  1
    DR_(15)   subJob_105  1
    DR_(15)   subJob_107  1
    DR_(15)   subJob_109  1
    DR_(15)   subJob_151  1
    DR_(15)   *OBJ*     1201
    DR_(16)   subJob_9  1
    DR_(16)   subJob_80  1
    DR_(16)   subJob_89  1
    DR_(16)   subJob_95  1
    DR_(16)   subJob_105  1
    DR_(16)   subJob_107  1
    DR_(16)   subJob_109  1
    DR_(16)   subJob_120  1
    DR_(16)   subJob_157  1
    DR_(16)   *OBJ*     1140
    DR_(17)   subJob_8  1
    DR_(17)   subJob_9  1
    DR_(17)   subJob_11  1
    DR_(17)   subJob_13  1
    DR_(17)   subJob_17  1
    DR_(17)   subJob_21  1
    DR_(17)   subJob_32  1
    DR_(17)   subJob_46  1
    DR_(17)   subJob_54  1
    DR_(17)   subJob_63  1
    DR_(17)   subJob_65  1
    DR_(17)   subJob_67  1
    DR_(17)   subJob_70  1
    DR_(17)   subJob_71  1
    DR_(17)   subJob_80  1
    DR_(17)   subJob_82  1
    DR_(17)   subJob_95  1
    DR_(17)   subJob_105  1
    DR_(17)   subJob_107  1
    DR_(17)   subJob_109  1
    DR_(17)   *OBJ*     263
    DR_(18)   subJob_8  1
    DR_(18)   subJob_9  1
    DR_(18)   subJob_11  1
    DR_(18)   subJob_13  1
    DR_(18)   subJob_21  1
    DR_(18)   subJob_40  1
    DR_(18)   subJob_54  1
    DR_(18)   subJob_63  1
    DR_(18)   subJob_65  1
    DR_(18)   subJob_67  1
    DR_(18)   subJob_70  1
    DR_(18)   subJob_80  1
    DR_(18)   subJob_82  1
    DR_(18)   subJob_89  1
    DR_(18)   subJob_95  1
    DR_(18)   subJob_105  1
    DR_(18)   subJob_107  1
    DR_(18)   subJob_109  1
    DR_(18)   subJob_152  1
    DR_(18)   *OBJ*     1260
    DR_(19)   subJob_38  1
    DR_(19)   subJob_81  1
    DR_(19)   subJob_82  1
    DR_(19)   subJob_83  1
    DR_(19)   subJob_84  1
    DR_(19)   subJob_85  1
    DR_(19)   subJob_90  1
    DR_(19)   subJob_122  1
    DR_(19)   *OBJ*     901
    DR_(20)   subJob_8  1
    DR_(20)   subJob_9  1
    DR_(20)   subJob_21  1
    DR_(20)   subJob_30  1
    DR_(20)   subJob_41  1
    DR_(20)   subJob_54  1
    DR_(20)   subJob_63  1
    DR_(20)   subJob_65  1
    DR_(20)   subJob_67  1
    DR_(20)   subJob_70  1
    DR_(20)   subJob_80  1
    DR_(20)   subJob_89  1
    DR_(20)   subJob_95  1
    DR_(20)   subJob_105  1
    DR_(20)   subJob_107  1
    DR_(20)   subJob_109  1
    DR_(20)   *OBJ*     1200
    DR_(21)   subJob_35  1
    DR_(21)   subJob_76  1
    DR_(21)   subJob_81  1
    DR_(21)   subJob_82  1
    DR_(21)   subJob_83  1
    DR_(21)   subJob_84  1
    DR_(21)   subJob_85  1
    DR_(21)   subJob_90  1
    DR_(21)   *OBJ*     900
    DR_(22)   subJob_8  1
    DR_(22)   subJob_9  1
    DR_(22)   subJob_11  1
    DR_(22)   subJob_13  1
    DR_(22)   subJob_21  1
    DR_(22)   subJob_54  1
    DR_(22)   subJob_63  1
    DR_(22)   subJob_65  1
    DR_(22)   subJob_67  1
    DR_(22)   subJob_70  1
    DR_(22)   subJob_79  1
    DR_(22)   subJob_80  1
    DR_(22)   subJob_82  1
    DR_(22)   subJob_89  1
    DR_(22)   subJob_95  1
    DR_(22)   subJob_105  1
    DR_(22)   subJob_107  1
    DR_(22)   subJob_109  1
    DR_(22)   subJob_164  1
    DR_(22)   *OBJ*     1262
    DR_(23)   subJob_8  1
    DR_(23)   subJob_9  1
    DR_(23)   subJob_11  1
    DR_(23)   subJob_13  1
    DR_(23)   subJob_17  1
    DR_(23)   subJob_21  1
    DR_(23)   subJob_46  1
    DR_(23)   subJob_54  1
    DR_(23)   subJob_63  1
    DR_(23)   subJob_65  1
    DR_(23)   subJob_67  1
    DR_(23)   subJob_70  1
    DR_(23)   subJob_80  1
    DR_(23)   subJob_82  1
    DR_(23)   subJob_95  1
    DR_(23)   subJob_105  1
    DR_(23)   subJob_107  1
    DR_(23)   subJob_109  1
    DR_(23)   subJob_154  1
    DR_(23)   subJob_165  1
    DR_(23)   *OBJ*     262
    DR_(24)   subJob_8  1
    DR_(24)   subJob_9  1
    DR_(24)   subJob_21  1
    DR_(24)   subJob_42  1
    DR_(24)   subJob_80  1
    DR_(24)   subJob_89  1
    DR_(24)   subJob_95  1
    DR_(24)   subJob_105  1
    DR_(24)   subJob_107  1
    DR_(24)   subJob_109  1
    DR_(24)   subJob_161  1
    DR_(24)   *OBJ*     1200
    DR_(25)   subJob_54  1
    DR_(25)   subJob_57  1
    DR_(25)   subJob_59  1
    DR_(25)   subJob_65  1
    DR_(25)   subJob_67  1
    DR_(25)   subJob_70  1
    DR_(25)   subJob_72  1
    DR_(25)   subJob_81  1
    DR_(25)   subJob_82  1
    DR_(25)   subJob_108  1
    DR_(25)   subJob_144  1
    DR_(25)   *OBJ*     1072
    DR_(26)   subJob_57  1
    DR_(26)   subJob_59  1
    DR_(26)   subJob_63  1
    DR_(26)   subJob_65  1
    DR_(26)   subJob_67  1
    DR_(26)   subJob_70  1
    DR_(26)   subJob_81  1
    DR_(26)   subJob_82  1
    DR_(26)   subJob_108  1
    DR_(26)   subJob_142  1
    DR_(26)   subJob_146  1
    DR_(26)   *OBJ*     1102
    DR_(27)   subJob_83  1
    DR_(27)   subJob_93  1
    DR_(27)   subJob_124  1
    DR_(27)   subJob_125  1
    DR_(27)   subJob_126  1
    DR_(27)   subJob_127  1
    DR_(27)   *OBJ*     532
    DR_(28)   subJob_84  1
    DR_(28)   subJob_96  1
    DR_(28)   subJob_104  1
    DR_(28)   subJob_124  1
    DR_(28)   subJob_125  1
    DR_(28)   subJob_126  1
    DR_(28)   subJob_127  1
    DR_(28)   *OBJ*     562
    DR_(29)   subJob_85  1
    DR_(29)   subJob_97  1
    DR_(29)   subJob_104  1
    DR_(29)   subJob_124  1
    DR_(29)   subJob_125  1
    DR_(29)   subJob_126  1
    DR_(29)   subJob_127  1
    DR_(29)   *OBJ*     592
    DR_(30)   subJob_87  1
    DR_(30)   subJob_100  1
    DR_(30)   subJob_110  1
    DR_(30)   subJob_124  1
    DR_(30)   subJob_125  1
    DR_(30)   subJob_126  1
    DR_(30)   subJob_127  1
    DR_(30)   *OBJ*     592
    DR_(31)   subJob_50  1
    DR_(31)   subJob_64  1
    DR_(31)   subJob_104  1
    DR_(31)   subJob_106  1
    DR_(31)   subJob_124  1
    DR_(31)   subJob_125  1
    DR_(31)   subJob_126  1
    DR_(31)   subJob_127  1
    DR_(31)   *OBJ*     718
    DR_(32)   subJob_51  1
    DR_(32)   subJob_66  1
    DR_(32)   subJob_104  1
    DR_(32)   subJob_124  1
    DR_(32)   subJob_125  1
    DR_(32)   subJob_126  1
    DR_(32)   subJob_127  1
    DR_(32)   *OBJ*     532
    DR_(33)   subJob_52  1
    DR_(33)   subJob_69  1
    DR_(33)   subJob_124  1
    DR_(33)   subJob_125  1
    DR_(33)   subJob_126  1
    DR_(33)   subJob_127  1
    DR_(33)   *OBJ*     532
    DR_(34)   subJob_104  1
    DR_(34)   subJob_106  1
    DR_(34)   subJob_108  1
    DR_(34)   subJob_119  1
    DR_(34)   subJob_124  1
    DR_(34)   subJob_125  1
    DR_(34)   subJob_126  1
    DR_(34)   subJob_127  1
    DR_(34)   *OBJ*     592
    DR_(35)   subJob_56  1
    DR_(35)   subJob_74  1
    DR_(35)   subJob_124  1
    DR_(35)   subJob_125  1
    DR_(35)   subJob_126  1
    DR_(35)   subJob_127  1
    DR_(35)   *OBJ*     592
    DR_(36)   subJob_57  1
    DR_(36)   subJob_99  1
    DR_(36)   subJob_104  1
    DR_(36)   subJob_124  1
    DR_(36)   subJob_125  1
    DR_(36)   subJob_126  1
    DR_(36)   subJob_127  1
    DR_(36)   *OBJ*     598
    DR_(37)   subJob_59  1
    DR_(37)   subJob_77  1
    DR_(37)   subJob_104  1
    DR_(37)   subJob_106  1
    DR_(37)   subJob_124  1
    DR_(37)   subJob_125  1
    DR_(37)   subJob_126  1
    DR_(37)   subJob_127  1
    DR_(37)   *OBJ*     592
    DR_(38)   subJob_61  1
    DR_(38)   subJob_78  1
    DR_(38)   subJob_104  1
    DR_(38)   subJob_106  1
    DR_(38)   subJob_124  1
    DR_(38)   subJob_125  1
    DR_(38)   subJob_126  1
    DR_(38)   subJob_127  1
    DR_(38)   *OBJ*     562
    DR_(39)   subJob_73  1
    DR_(39)   subJob_101  1
    DR_(39)   subJob_124  1
    DR_(39)   subJob_125  1
    DR_(39)   subJob_126  1
    DR_(39)   subJob_127  1
    DR_(39)   *OBJ*     578
    DR_(40)   subJob_75  1
    DR_(40)   subJob_102  1
    DR_(40)   subJob_124  1
    DR_(40)   subJob_125  1
    DR_(40)   subJob_126  1
    DR_(40)   subJob_127  1
    DR_(40)   *OBJ*     688
    DR_(41)   subJob_104  1
    DR_(41)   subJob_112  1
    DR_(41)   *OBJ*     532
    DR_(42)   subJob_106  1
    DR_(42)   subJob_116  1
    DR_(42)   *OBJ*     532
    DR_(43)   subJob_110  1
    DR_(43)   subJob_121  1
    DR_(43)   *OBJ*     532
    DR_(44)   subJob_111  1
    DR_(44)   subJob_123  1
    DR_(44)   *OBJ*     592
    DR_(45)   subJob_62  1
    DR_(45)   subJob_139  1
    DR_(45)   *OBJ*     532
    DR_(46)   subJob_72  1
    DR_(46)   subJob_89  1
    DR_(46)   *OBJ*     1041
    DR_(47)   subJob_142  1
    DR_(47)   subJob_146  1
    DR_(47)   *OBJ*     1026
    DR_(48)   subJob_93  1
    DR_(48)   *OBJ*     501
    DR_(49)   subJob_66  1
    DR_(49)   *OBJ*     501
    DR_(50)   subJob_69  1
    DR_(50)   *OBJ*     501
    DR_(51)   subJob_96  1
    DR_(51)   *OBJ*     501
    DR_(52)   subJob_78  1
    DR_(52)   *OBJ*     501
    DR_(53)   subJob_101  1
    DR_(53)   *OBJ*     501
    DR_(54)   subJob_97  1
    DR_(54)   *OBJ*     501
    DR_(55)   subJob_100  1
    DR_(55)   *OBJ*     501
    DR_(56)   subJob_119  1
    DR_(56)   *OBJ*     501
    DR_(57)   subJob_74  1
    DR_(57)   *OBJ*     501
    DR_(58)   subJob_77  1
    DR_(58)   *OBJ*     501
    DR_(59)   subJob_99  1
    DR_(59)   *OBJ*     501
    DR_(60)   subJob_90  1
    DR_(60)   *OBJ*     501
    DR_(61)   subJob_102  1
    DR_(61)   *OBJ*     501
    DR_(62)   subJob_64  1
    DR_(62)   *OBJ*     501
    DR_(63)   subJob_89  1
    DR_(63)   *OBJ*     501
    DR_(64)   subJob_139  1
    DR_(64)   *OBJ*     501
    DR_(65)   subJob_144  1
    DR_(65)   *OBJ*     501
    DR_(66)   subJob_112  1
    DR_(66)   *OBJ*     501
    DR_(67)   subJob_116  1
    DR_(67)   *OBJ*     501
    DR_(68)   subJob_121  1
    DR_(68)   *OBJ*     501
    DR_(69)   subJob_146  1
    DR_(69)   *OBJ*     501
    DR_(70)   subJob_123  1
    DR_(70)   *OBJ*     501
    DR_(71)   subJob_104  1
    DR_(71)   subJob_112  1
    DR_(71)   *OBJ*     532
    DR_(72)   subJob_104  1
    DR_(72)   subJob_112  1
    DR_(72)   *OBJ*     532
    DR_(73)   subJob_106  1
    DR_(73)   subJob_116  1
    DR_(73)   *OBJ*     532
    DR_(74)   subJob_106  1
    DR_(74)   subJob_116  1
    DR_(74)   *OBJ*     532
    DR_(75)   subJob_110  1
    DR_(75)   subJob_121  1
    DR_(75)   *OBJ*     532
    DR_(76)   subJob_110  1
    DR_(76)   subJob_121  1
    DR_(76)   *OBJ*     532
    DR_(77)   subJob_111  1
    DR_(77)   subJob_123  1
    DR_(77)   *OBJ*     592
    DR_(78)   subJob_111  1
    DR_(78)   subJob_123  1
    DR_(78)   *OBJ*     592
    DR_(79)   subJob_62  1
    DR_(79)   subJob_139  1
    DR_(79)   *OBJ*     532
    DR_(80)   subJob_62  1
    DR_(80)   subJob_139  1
    DR_(80)   *OBJ*     532
    DR_(81)   subJob_72  1
    DR_(81)   subJob_89  1
    DR_(81)   *OBJ*     1041
    DR_(82)   subJob_72  1
    DR_(82)   subJob_89  1
    DR_(82)   *OBJ*     1041
    DR_(83)   subJob_142  1
    DR_(83)   subJob_146  1
    DR_(83)   *OBJ*     1026
    DR_(84)   subJob_142  1
    DR_(84)   subJob_146  1
    DR_(84)   *OBJ*     1026
    DR_(85)   subJob_72  1
    DR_(85)   subJob_89  1
    DR_(85)   *OBJ*     1041
    DR_(86)   subJob_72  1
    DR_(86)   subJob_89  1
    DR_(86)   *OBJ*     1041
    DR_(87)   subJob_62  1
    DR_(87)   subJob_139  1
    DR_(87)   *OBJ*     532
    DR_(88)   subJob_62  1
    DR_(88)   subJob_139  1
    DR_(88)   *OBJ*     532
    DR_(89)   subJob_104  1
    DR_(89)   subJob_112  1
    DR_(89)   *OBJ*     532
    DR_(90)   subJob_104  1
    DR_(90)   subJob_112  1
    DR_(90)   *OBJ*     532
    DR_(91)   subJob_106  1
    DR_(91)   subJob_116  1
    DR_(91)   *OBJ*     532
    DR_(92)   subJob_106  1
    DR_(92)   subJob_116  1
    DR_(92)   *OBJ*     532
    DR_(93)   subJob_110  1
    DR_(93)   subJob_121  1
    DR_(93)   *OBJ*     532
    DR_(94)   subJob_110  1
    DR_(94)   subJob_121  1
    DR_(94)   *OBJ*     532
    DR_(95)   subJob_142  1
    DR_(95)   subJob_146  1
    DR_(95)   *OBJ*     1026
    DR_(96)   subJob_142  1
    DR_(96)   subJob_146  1
    DR_(96)   *OBJ*     1026
    DR_(97)   subJob_111  1
    DR_(97)   subJob_123  1
    DR_(97)   *OBJ*     592
    DR_(98)   subJob_111  1
    DR_(98)   subJob_123  1
    DR_(98)   *OBJ*     592
    DR_(99)   subJob_7  1
    DR_(99)   subJob_15  1
    DR_(99)   subJob_17  1
    DR_(99)   subJob_18  1
    DR_(99)   subJob_19  1
    DR_(99)   subJob_22  1
    DR_(99)   subJob_24  1
    DR_(99)   subJob_25  1
    DR_(99)   subJob_26  1
    DR_(99)   subJob_32  1
    DR_(99)   subJob_36  1
    DR_(99)   subJob_43  1
    DR_(99)   subJob_46  1
    DR_(99)   subJob_47  1
    DR_(99)   subJob_65  1
    DR_(99)   subJob_70  1
    DR_(99)   subJob_71  1
    DR_(99)   subJob_94  1
    DR_(99)   subJob_98  1
    DR_(99)   subJob_103  1
    DR_(99)   subJob_109  1
    DR_(99)   subJob_134  1
    DR_(99)   subJob_136  1
    DR_(99)   subJob_138  1
    DR_(99)   subJob_140  1
    DR_(99)   *OBJ*     680
    DR_(100)  subJob_1  1
    DR_(100)  subJob_3  1
    DR_(100)  subJob_6  1
    DR_(100)  subJob_8  1
    DR_(100)  subJob_21  1
    DR_(100)  subJob_23  1
    DR_(100)  subJob_30  1
    DR_(100)  subJob_34  1
    DR_(100)  subJob_37  1
    DR_(100)  subJob_41  1
    DR_(100)  subJob_45  1
    DR_(100)  subJob_53  1
    DR_(100)  subJob_58  1
    DR_(100)  subJob_63  1
    DR_(100)  subJob_80  1
    DR_(100)  subJob_92  1
    DR_(100)  subJob_107  1
    DR_(100)  subJob_128  1
    DR_(100)  subJob_132  1
    DR_(100)  subJob_137  1
    DR_(100)  subJob_148  1
    DR_(100)  subJob_150  1
    DR_(100)  subJob_153  1
    DR_(100)  subJob_154  1
    DR_(100)  subJob_165  1
    DR_(100)  *OBJ*     710
    DR_(101)  subJob_2  1
    DR_(101)  subJob_4  1
    DR_(101)  subJob_14  1
    DR_(101)  subJob_16  1
    DR_(101)  subJob_27  1
    DR_(101)  subJob_31  1
    DR_(101)  subJob_33  1
    DR_(101)  subJob_35  1
    DR_(101)  subJob_44  1
    DR_(101)  subJob_54  1
    DR_(101)  subJob_67  1
    DR_(101)  subJob_68  1
    DR_(101)  subJob_73  1
    DR_(101)  subJob_76  1
    DR_(101)  subJob_88  1
    DR_(101)  subJob_89  1
    DR_(101)  subJob_105  1
    DR_(101)  subJob_118  1
    DR_(101)  subJob_120  1
    DR_(101)  subJob_135  1
    DR_(101)  subJob_141  1
    DR_(101)  subJob_143  1
    DR_(101)  subJob_145  1
    DR_(101)  subJob_147  1
    DR_(101)  subJob_151  1
    DR_(101)  subJob_155  1
    DR_(101)  subJob_157  1
    DR_(101)  subJob_160  1
    DR_(101)  subJob_167  1
    DR_(101)  *OBJ*     1260
    DR_(102)  subJob    1
    DR_(102)  subJob_5  1
    DR_(102)  subJob_20  1
    DR_(102)  subJob_28  1
    DR_(102)  subJob_29  1
    DR_(102)  subJob_38  1
    DR_(102)  subJob_39  1
    DR_(102)  subJob_40  1
    DR_(102)  subJob_51  1
    DR_(102)  subJob_60  1
    DR_(102)  subJob_75  1
    DR_(102)  subJob_86  1
    DR_(102)  subJob_113  1
    DR_(102)  subJob_115  1
    DR_(102)  subJob_122  1
    DR_(102)  subJob_152  1
    DR_(102)  subJob_156  1
    DR_(102)  subJob_162  1
    DR_(102)  subJob_166  1
    DR_(102)  *OBJ*     1320
    DR_(103)  subJob_50  1
    DR_(103)  subJob_55  1
    DR_(103)  subJob_62  1
    DR_(103)  subJob_64  1
    DR_(103)  subJob_79  1
    DR_(103)  subJob_139  1
    DR_(103)  subJob_158  1
    DR_(103)  subJob_159  1
    DR_(103)  subJob_163  1
    DR_(103)  subJob_164  1
    DR_(103)  *OBJ*     1232
    DR_(104)  subJob_9  1
    DR_(104)  subJob_42  1
    DR_(104)  subJob_52  1
    DR_(104)  subJob_69  1
    DR_(104)  subJob_95  1
    DR_(104)  subJob_104  1
    DR_(104)  subJob_106  1
    DR_(104)  subJob_116  1
    DR_(104)  subJob_161  1
    DR_(104)  *OBJ*     1170
    DR_(105)  subJob_10  1
    DR_(105)  subJob_12  1
    DR_(105)  subJob_48  1
    DR_(105)  subJob_49  1
    DR_(105)  subJob_56  1
    DR_(105)  subJob_57  1
    DR_(105)  subJob_108  1
    DR_(105)  subJob_114  1
    DR_(105)  *OBJ*     773
    DR_(106)  subJob_11  1
    DR_(106)  subJob_13  1
    DR_(106)  subJob_72  1
    DR_(106)  subJob_110  1
    DR_(106)  subJob_111  1
    DR_(106)  subJob_121  1
    DR_(106)  subJob_123  1
    DR_(106)  subJob_124  1
    DR_(106)  subJob_125  1
    DR_(106)  subJob_126  1
    DR_(106)  subJob_127  1
    DR_(106)  subJob_129  1
    DR_(106)  subJob_130  1
    DR_(106)  subJob_131  1
    DR_(106)  subJob_133  1
    DR_(106)  subJob_144  1
    DR_(106)  *OBJ*     1200
    DR_(107)  subJob_117  1
    DR_(107)  *OBJ*     501
    DR_(108)  subJob_149  1
    DR_(108)  *OBJ*     501
    DR_(109)  subJob_102  1
    DR_(109)  *OBJ*     501
    DR_(110)  subJob_101  1
    DR_(110)  *OBJ*     501
    DR_(111)  subJob_66  1
    DR_(111)  *OBJ*     501
    DR_(112)  subJob_142  1
    DR_(112)  subJob_146  1
    DR_(112)  *OBJ*     1026
    DR_(113)  subJob_119  1
    DR_(113)  *OBJ*     501
    DR_(114)  subJob_59  1
    DR_(114)  subJob_77  1
    DR_(114)  *OBJ*     592
    DR_(115)  subJob_61  1
    DR_(115)  subJob_78  1
    DR_(115)  *OBJ*     562
    DR_(116)  subJob_81  1
    DR_(116)  subJob_90  1
    DR_(116)  *OBJ*     622
    DR_(117)  subJob_83  1
    DR_(117)  subJob_93  1
    DR_(117)  *OBJ*     532
    DR_(118)  subJob_82  1
    DR_(118)  subJob_91  1
    DR_(118)  *OBJ*     562
    DR_(119)  subJob_85  1
    DR_(119)  subJob_97  1
    DR_(119)  *OBJ*     592
    DR_(120)  subJob_84  1
    DR_(120)  subJob_96  1
    DR_(120)  *OBJ*     562
    DR_(121)  subJob_87  1
    DR_(121)  subJob_100  1
    DR_(121)  *OBJ*     592
    DR_(122)  subJob_99  1
    DR_(122)  *OBJ*     501
    DR_(123)  subJob_74  1
    DR_(123)  *OBJ*     501
    DR_(124)  subJob_112  1
    DR_(124)  *OBJ*     501

RHS
    *RHS*     subJob_167  1
    *RHS*     subJob_166  1
    *RHS*     subJob_165  1
    *RHS*     subJob_164  1
    *RHS*     subJob_163  1
    *RHS*     subJob_162  1
    *RHS*     subJob_161  1
    *RHS*     subJob_160  1
    *RHS*     subJob_159  1
    *RHS*     subJob_158  1
    *RHS*     subJob_157  1
    *RHS*     subJob_156  1
    *RHS*     subJob_155  1
    *RHS*     subJob_154  1
    *RHS*     subJob_153  1
    *RHS*     subJob_152  1
    *RHS*     subJob_151  1
    *RHS*     subJob_150  1
    *RHS*     subJob_149  1
    *RHS*     subJob_148  1
    *RHS*     subJob_147  1
    *RHS*     subJob_146  1
    *RHS*     subJob_145  1
    *RHS*     subJob_144  1
    *RHS*     subJob_143  1
    *RHS*     subJob_142  1
    *RHS*     subJob_141  1
    *RHS*     subJob_140  1
    *RHS*     subJob_139  1
    *RHS*     subJob_138  1
    *RHS*     subJob_137  1
    *RHS*     subJob_136  1
    *RHS*     subJob_135  1
    *RHS*     subJob_134  1
    *RHS*     subJob_133  1
    *RHS*     subJob_132  1
    *RHS*     subJob_131  1
    *RHS*     subJob_130  1
    *RHS*     subJob_129  1
    *RHS*     subJob_128  1
    *RHS*     subJob_127  1
    *RHS*     subJob_126  1
    *RHS*     subJob_125  1
    *RHS*     subJob_124  1
    *RHS*     subJob_123  1
    *RHS*     subJob_122  1
    *RHS*     subJob_121  1
    *RHS*     subJob_120  1
    *RHS*     subJob_119  1
    *RHS*     subJob_118  1
    *RHS*     subJob_117  1
    *RHS*     subJob_116  1
    *RHS*     subJob_115  1
    *RHS*     subJob_114  1
    *RHS*     subJob_113  1
    *RHS*     subJob_112  1
    *RHS*     subJob_111  1
    *RHS*     subJob_110  1
    *RHS*     subJob_109  1
    *RHS*     subJob_108  1
    *RHS*     subJob_107  1
    *RHS*     subJob_106  1
    *RHS*     subJob_105  1
    *RHS*     subJob_104  1
    *RHS*     subJob_103  1
    *RHS*     subJob_102  1
    *RHS*     subJob_101  1
    *RHS*     subJob_100  1
    *RHS*     subJob_99  1
    *RHS*     subJob_98  1
    *RHS*     subJob_97  1
    *RHS*     subJob_96  1
    *RHS*     subJob_95  1
    *RHS*     subJob_94  1
    *RHS*     subJob_93  1
    *RHS*     subJob_92  1
    *RHS*     subJob_91  1
    *RHS*     subJob_90  1
    *RHS*     subJob_89  1
    *RHS*     subJob_88  1
    *RHS*     subJob_87  1
    *RHS*     subJob_86  1
    *RHS*     subJob_85  1
    *RHS*     subJob_84  1
    *RHS*     subJob_83  1
    *RHS*     subJob_82  1
    *RHS*     subJob_81  1
    *RHS*     subJob_80  1
    *RHS*     subJob_79  1
    *RHS*     subJob_78  1
    *RHS*     subJob_77  1
    *RHS*     subJob_76  1
    *RHS*     subJob_75  1
    *RHS*     subJob_74  1
    *RHS*     subJob_73  1
    *RHS*     subJob_72  1
    *RHS*     subJob_71  1
    *RHS*     subJob_70  1
    *RHS*     subJob_69  1
    *RHS*     subJob_68  1
    *RHS*     subJob_67  1
    *RHS*     subJob_66  1
    *RHS*     subJob_65  1
    *RHS*     subJob_64  1
    *RHS*     subJob_63  1
    *RHS*     subJob_62  1
    *RHS*     subJob_61  1
    *RHS*     subJob_60  1
    *RHS*     subJob_59  1
    *RHS*     subJob_58  1
    *RHS*     subJob_57  1
    *RHS*     subJob_56  1
    *RHS*     subJob_55  1
    *RHS*     subJob_54  1
    *RHS*     subJob_53  1
    *RHS*     subJob_52  1
    *RHS*     subJob_51  1
    *RHS*     subJob_50  1
    *RHS*     subJob_49  1
    *RHS*     subJob_48  1
    *RHS*     subJob_47  1
    *RHS*     subJob_46  1
    *RHS*     subJob_45  1
    *RHS*     subJob_44  1
    *RHS*     subJob_43  1
    *RHS*     subJob_42  1
    *RHS*     subJob_41  1
    *RHS*     subJob_40  1
    *RHS*     subJob_39  1
    *RHS*     subJob_38  1
    *RHS*     subJob_37  1
    *RHS*     subJob_36  1
    *RHS*     subJob_35  1
    *RHS*     subJob_34  1
    *RHS*     subJob_33  1
    *RHS*     subJob_32  1
    *RHS*     subJob_31  1
    *RHS*     subJob_30  1
    *RHS*     subJob_29  1
    *RHS*     subJob_28  1
    *RHS*     subJob_27  1
    *RHS*     subJob_26  1
    *RHS*     subJob_25  1
    *RHS*     subJob_24  1
    *RHS*     subJob_23  1
    *RHS*     subJob_22  1
    *RHS*     subJob_21  1
    *RHS*     subJob_20  1
    *RHS*     subJob_19  1
    *RHS*     subJob_18  1
    *RHS*     subJob_17  1
    *RHS*     subJob_16  1
    *RHS*     subJob_15  1
    *RHS*     subJob_14  1
    *RHS*     subJob_13  1
    *RHS*     subJob_12  1
    *RHS*     subJob_11  1
    *RHS*     subJob_10  1
    *RHS*     subJob_9  1
    *RHS*     subJob_8  1
    *RHS*     subJob_7  1
    *RHS*     subJob_6  1
    *RHS*     subJob_5  1
    *RHS*     subJob_4  1
    *RHS*     subJob_3  1
    *RHS*     subJob_2  1
    *RHS*     subJob_1  1
    *RHS*     subJob    1

BOUNDS
 BV *BND*     DR_(0)
 BV *BND*     DR_(1)
 BV *BND*     DR_(2)
 BV *BND*     DR_(3)
 BV *BND*     DR_(4)
 BV *BND*     DR_(5)
 BV *BND*     DR_(6)
 BV *BND*     DR_(7)
 BV *BND*     DR_(8)
 BV *BND*     DR_(9)
 BV *BND*     DR_(10)
 BV *BND*     DR_(11)
 BV *BND*     DR_(12)
 BV *BND*     DR_(13)
 BV *BND*     DR_(14)
 BV *BND*     DR_(15)
 BV *BND*     DR_(16)
 BV *BND*     DR_(17)
 BV *BND*     DR_(18)
 BV *BND*     DR_(19)
 BV *BND*     DR_(20)
 BV *BND*     DR_(21)
 BV *BND*     DR_(22)
 BV *BND*     DR_(23)
 BV *BND*     DR_(24)
 BV *BND*     DR_(25)
 BV *BND*     DR_(26)
 BV *BND*     DR_(27)
 BV *BND*     DR_(28)
 BV *BND*     DR_(29)
 BV *BND*     DR_(30)
 BV *BND*     DR_(31)
 BV *BND*     DR_(32)
 BV *BND*     DR_(33)
 BV *BND*     DR_(34)
 BV *BND*     DR_(35)
 BV *BND*     DR_(36)
 BV *BND*     DR_(37)
 BV *BND*     DR_(38)
 BV *BND*     DR_(39)
 BV *BND*     DR_(40)
 BV *BND*     DR_(41)
 BV *BND*     DR_(42)
 BV *BND*     DR_(43)
 BV *BND*     DR_(44)
 BV *BND*     DR_(45)
 BV *BND*     DR_(46)
 BV *BND*     DR_(47)
 BV *BND*     DR_(48)
 BV *BND*     DR_(49)
 BV *BND*     DR_(50)
 BV *BND*     DR_(51)
 BV *BND*     DR_(52)
 BV *BND*     DR_(53)
 BV *BND*     DR_(54)
 BV *BND*     DR_(55)
 BV *BND*     DR_(56)
 BV *BND*     DR_(57)
 BV *BND*     DR_(58)
 BV *BND*     DR_(59)
 BV *BND*     DR_(60)
 BV *BND*     DR_(61)
 BV *BND*     DR_(62)
 BV *BND*     DR_(63)
 BV *BND*     DR_(64)
 BV *BND*     DR_(65)
 BV *BND*     DR_(66)
 BV *BND*     DR_(67)
 BV *BND*     DR_(68)
 BV *BND*     DR_(69)
 BV *BND*     DR_(70)
 BV *BND*     DR_(71)
 BV *BND*     DR_(72)
 BV *BND*     DR_(73)
 BV *BND*     DR_(74)
 BV *BND*     DR_(75)
 BV *BND*     DR_(76)
 BV *BND*     DR_(77)
 BV *BND*     DR_(78)
 BV *BND*     DR_(79)
 BV *BND*     DR_(80)
 BV *BND*     DR_(81)
 BV *BND*     DR_(82)
 BV *BND*     DR_(83)
 BV *BND*     DR_(84)
 BV *BND*     DR_(85)
 BV *BND*     DR_(86)
 BV *BND*     DR_(87)
 BV *BND*     DR_(88)
 BV *BND*     DR_(89)
 BV *BND*     DR_(90)
 BV *BND*     DR_(91)
 BV *BND*     DR_(92)
 BV *BND*     DR_(93)
 BV *BND*     DR_(94)
 BV *BND*     DR_(95)
 BV *BND*     DR_(96)
 BV *BND*     DR_(97)
 BV *BND*     DR_(98)
 BV *BND*     DR_(99)
 BV *BND*     DR_(100)
 BV *BND*     DR_(101)
 BV *BND*     DR_(102)
 BV *BND*     DR_(103)
 BV *BND*     DR_(104)
 BV *BND*     DR_(105)
 BV *BND*     DR_(106)
 BV *BND*     DR_(107)
 BV *BND*     DR_(108)
 BV *BND*     DR_(109)
 BV *BND*     DR_(110)
 BV *BND*     DR_(111)
 BV *BND*     DR_(112)
 BV *BND*     DR_(113)
 BV *BND*     DR_(114)
 BV *BND*     DR_(115)
 BV *BND*     DR_(116)
 BV *BND*     DR_(117)
 BV *BND*     DR_(118)
 BV *BND*     DR_(119)
 BV *BND*     DR_(120)
 BV *BND*     DR_(121)
 BV *BND*     DR_(122)
 BV *BND*     DR_(123)
 BV *BND*     DR_(124)

ENDATA
